NAME : demo
TYPE : TSP
DIMENSION : 9
EDGE_WEIGHT_TYPE : EXPLICIT
EDGE_WEIGHT_FORMAT : UPPER_ROW
COMMENT : INVERSION_SHIFT=2
EDGE_WEIGHT_SECTION
42
73
68
78
41
45
24
71
51
68
36
13
73
19
3
45
36
66
22
13
49
47
71
37
60
1
41
35
78
52
41
17
66
81
48
17
